% numberOfWeeks=8;
% s_min=2;
% s_max=4;
% shiftRequirements=[|2, 2, 2, 2  
% |2, 2, 2, 2 |
% 2, 2, 2, 2 | 
% 2, 2, 2, 2 | 
% 2, 2, 2, 2 | 
% 2, 2, 2, 2 | 
% 2, 2, 2, 2 |];

numberOfWeeks=52;
s_min=2;
s_max=4;
shiftRequirements=[|13, 13, 13, 13  
|13, 13, 13, 13 |
13, 13, 13, 13 | 
13, 13, 13, 13 | 
13, 13, 13, 13 | 
13, 13, 13, 13 | 
13, 13, 13, 13 |];